n = 15;
m = 4;
marge = [66.48, 89.08, 212.09, 179.99, 60.44, 206.75, 175.99, 229.05, 107.72, 135.02, 158.61, 259.02, 92.65, 286.59, 153.58];
capacite = [12.8, 8.3, 8.5, 8.6];
usage = [| 0.00, 2.36, 1.96, 3.75
           | 3.37, 0.00, 6.71, 2.14
           | 4.92, 6.60, 6.85, 0.00
           | 10.70, 2.26, 0.00, 9.06
           | 0.00, 10.85, 11.86, 10.47
           | 11.76, 1.75, 3.07, 0.00
           | 6.10, 10.98, 0.00, 1.33
           | 8.87, 2.12, 0.00, 10.09
           | 8.28, 3.37, 0.00, 5.64
           | 7.50, 3.13, 6.48, 0.00
           | 0.00, 0.86, 3.63, 7.17
           | 9.06, 7.46, 9.27, 0.00
           | 9.27, 0.00, 2.20, 4.90
           | 10.38, 0.00, 10.56, 4.76
           | 8.47, 9.12, 0.00, 4.34 |];
